p cnf 200 1110
-101 -39 0
-101 59 0
-101 -1 0
-101 37 0
-101 -53 0
-101 36 0
-101 71 0
-101 21 0
-101 -82 0
-101 58 0
101 39 -59 1 -37 53 -36 -71 -21 82 -58 0
-102 7 0
-102 63 0
-102 -19 0
-102 -70 0
-102 37 0
-102 6 0
-102 -4 0
-102 88 0
-102 31 0
-102 -23 0
102 -7 -63 19 70 -37 -6 4 -88 -31 23 0
-103 -55 0
-103 -23 0
-103 73 0
-103 12 0
-103 61 0
-103 25 0
-103 90 0
-103 35 0
-103 93 0
-103 24 0
103 55 23 -73 -12 -61 -25 -90 -35 -93 -24 0
-104 -98 0
-104 75 0
-104 -3 0
-104 -9 0
-104 -8 0
-104 43 0
-104 14 0
-104 29 0
-104 -87 0
-104 59 0
104 98 -75 3 9 8 -43 -14 -29 87 -59 0
-105 48 0
-105 -56 0
-105 31 0
-105 95 0
-105 60 0
-105 40 0
-105 -98 0
-105 -88 0
-105 -54 0
-105 9 0
105 -48 56 -31 -95 -60 -40 98 88 54 -9 0
-106 5 0
-106 40 0
-106 8 0
-106 72 0
-106 2 0
-106 -64 0
-106 -37 0
-106 -49 0
-106 1 0
-106 -75 0
106 -5 -40 -8 -72 -2 64 37 49 -1 75 0
-107 90 0
-107 71 0
-107 -13 0
-107 77 0
-107 54 0
-107 -80 0
-107 61 0
-107 -51 0
-107 76 0
-107 -7 0
107 -90 -71 13 -77 -54 80 -61 51 -76 7 0
-108 89 0
-108 -11 0
-108 33 0
-108 79 0
-108 -5 0
-108 51 0
-108 88 0
-108 63 0
-108 90 0
-108 92 0
108 -89 11 -33 -79 5 -51 -88 -63 -90 -92 0
-109 -19 0
-109 50 0
-109 25 0
-109 -100 0
-109 -85 0
-109 -2 0
-109 93 0
-109 9 0
-109 -4 0
-109 -71 0
109 19 -50 -25 100 85 2 -93 -9 4 71 0
-110 17 0
-110 -34 0
-110 18 0
-110 -90 0
-110 25 0
-110 95 0
-110 -49 0
-110 -31 0
-110 100 0
-110 -14 0
110 -17 34 -18 90 -25 -95 49 31 -100 14 0
101 102 103 104 105 106 107 108 109 110 0
-111 -64 0
-111 -34 0
-111 92 0
-111 -13 0
-111 -54 0
-111 24 0
-111 33 0
-111 32 0
-111 -76 0
-111 88 0
111 64 34 -92 13 54 -24 -33 -32 76 -88 0
-112 -26 0
-112 -21 0
-112 -22 0
-112 42 0
-112 94 0
-112 82 0
-112 30 0
-112 43 0
-112 -57 0
-112 36 0
112 26 21 22 -42 -94 -82 -30 -43 57 -36 0
-113 35 0
-113 -15 0
-113 37 0
-113 21 0
-113 -29 0
-113 -95 0
-113 82 0
-113 76 0
-113 -65 0
-113 97 0
113 -35 15 -37 -21 29 95 -82 -76 65 -97 0
-114 -55 0
-114 -1 0
-114 -52 0
-114 -93 0
-114 -60 0
-114 51 0
-114 -13 0
-114 44 0
-114 -80 0
-114 -3 0
114 55 1 52 93 60 -51 13 -44 80 3 0
-115 -41 0
-115 63 0
-115 -94 0
-115 36 0
-115 75 0
-115 89 0
-115 -69 0
-115 -87 0
-115 98 0
-115 26 0
115 41 -63 94 -36 -75 -89 69 87 -98 -26 0
-116 -82 0
-116 -19 0
-116 -28 0
-116 -48 0
-116 -98 0
-116 63 0
-116 94 0
-116 -2 0
-116 66 0
-116 -36 0
116 82 19 28 48 98 -63 -94 2 -66 36 0
-117 32 0
-117 79 0
-117 73 0
-117 66 0
-117 40 0
-117 93 0
-117 94 0
-117 59 0
-117 71 0
-117 -100 0
117 -32 -79 -73 -66 -40 -93 -94 -59 -71 100 0
-118 92 0
-118 61 0
-118 1 0
-118 62 0
-118 -43 0
-118 78 0
-118 -56 0
-118 -38 0
-118 50 0
-118 -64 0
118 -92 -61 -1 -62 43 -78 56 38 -50 64 0
-119 61 0
-119 58 0
-119 84 0
-119 -48 0
-119 12 0
-119 -67 0
-119 13 0
-119 72 0
-119 -14 0
-119 -45 0
119 -61 -58 -84 48 -12 67 -13 -72 14 45 0
-120 -100 0
-120 -95 0
-120 -83 0
-120 6 0
-120 -89 0
-120 -69 0
-120 75 0
-120 -73 0
-120 53 0
-120 22 0
120 100 95 83 -6 89 69 -75 73 -53 -22 0
111 112 113 114 115 116 117 118 119 120 0
-121 24 0
-121 65 0
-121 28 0
-121 51 0
-121 47 0
-121 75 0
-121 39 0
-121 1 0
-121 -23 0
-121 89 0
121 -24 -65 -28 -51 -47 -75 -39 -1 23 -89 0
-122 -82 0
-122 -1 0
-122 -74 0
-122 -31 0
-122 77 0
-122 -58 0
-122 -7 0
-122 -78 0
-122 -59 0
-122 14 0
122 82 1 74 31 -77 58 7 78 59 -14 0
-123 43 0
-123 -98 0
-123 -59 0
-123 -6 0
-123 -21 0
-123 -66 0
-123 -57 0
-123 24 0
-123 -4 0
-123 80 0
123 -43 98 59 6 21 66 57 -24 4 -80 0
-124 3 0
-124 7 0
-124 50 0
-124 59 0
-124 34 0
-124 26 0
-124 -8 0
-124 -18 0
-124 -20 0
-124 66 0
124 -3 -7 -50 -59 -34 -26 8 18 20 -66 0
-125 67 0
-125 52 0
-125 17 0
-125 -23 0
-125 98 0
-125 -3 0
-125 -68 0
-125 91 0
-125 -26 0
-125 -64 0
125 -67 -52 -17 23 -98 3 68 -91 26 64 0
-126 -9 0
-126 -29 0
-126 20 0
-126 -50 0
-126 -33 0
-126 73 0
-126 43 0
-126 83 0
-126 -79 0
-126 -53 0
126 9 29 -20 50 33 -73 -43 -83 79 53 0
-127 -16 0
-127 -57 0
-127 87 0
-127 17 0
-127 24 0
-127 55 0
-127 14 0
-127 68 0
-127 -70 0
-127 -90 0
127 16 57 -87 -17 -24 -55 -14 -68 70 90 0
-128 -19 0
-128 14 0
-128 74 0
-128 -80 0
-128 42 0
-128 -88 0
-128 -10 0
-128 -9 0
-128 72 0
-128 -91 0
128 19 -14 -74 80 -42 88 10 9 -72 91 0
-129 -6 0
-129 -45 0
-129 64 0
-129 18 0
-129 53 0
-129 -31 0
-129 25 0
-129 -30 0
-129 -84 0
-129 -81 0
129 6 45 -64 -18 -53 31 -25 30 84 81 0
-130 54 0
-130 -69 0
-130 -32 0
-130 -31 0
-130 4 0
-130 -10 0
-130 -17 0
-130 15 0
-130 92 0
-130 -97 0
130 -54 69 32 31 -4 10 17 -15 -92 97 0
121 122 123 124 125 126 127 128 129 130 0
-131 -88 0
-131 5 0
-131 -3 0
-131 -73 0
-131 27 0
-131 74 0
-131 -92 0
-131 -43 0
-131 70 0
-131 21 0
131 88 -5 3 73 -27 -74 92 43 -70 -21 0
-132 -6 0
-132 19 0
-132 58 0
-132 -28 0
-132 40 0
-132 -91 0
-132 -59 0
-132 47 0
-132 -33 0
-132 61 0
132 6 -19 -58 28 -40 91 59 -47 33 -61 0
-133 93 0
-133 -91 0
-133 -97 0
-133 19 0
-133 -68 0
-133 45 0
-133 15 0
-133 -42 0
-133 5 0
-133 78 0
133 -93 91 97 -19 68 -45 -15 42 -5 -78 0
-134 -54 0
-134 21 0
-134 25 0
-134 -62 0
-134 34 0
-134 44 0
-134 -47 0
-134 -67 0
-134 -61 0
-134 63 0
134 54 -21 -25 62 -34 -44 47 67 61 -63 0
-135 -27 0
-135 65 0
-135 79 0
-135 11 0
-135 87 0
-135 84 0
-135 72 0
-135 1 0
-135 41 0
-135 -47 0
135 27 -65 -79 -11 -87 -84 -72 -1 -41 47 0
-136 71 0
-136 -87 0
-136 4 0
-136 -37 0
-136 -63 0
-136 65 0
-136 -11 0
-136 83 0
-136 95 0
-136 -13 0
136 -71 87 -4 37 63 -65 11 -83 -95 13 0
-137 -54 0
-137 -59 0
-137 -3 0
-137 -44 0
-137 57 0
-137 32 0
-137 -30 0
-137 74 0
-137 42 0
-137 -85 0
137 54 59 3 44 -57 -32 30 -74 -42 85 0
-138 47 0
-138 -70 0
-138 79 0
-138 -81 0
-138 74 0
-138 21 0
-138 59 0
-138 33 0
-138 18 0
-138 -30 0
138 -47 70 -79 81 -74 -21 -59 -33 -18 30 0
-139 92 0
-139 -71 0
-139 -78 0
-139 9 0
-139 -99 0
-139 95 0
-139 2 0
-139 -33 0
-139 5 0
-139 49 0
139 -92 71 78 -9 99 -95 -2 33 -5 -49 0
-140 -45 0
-140 71 0
-140 38 0
-140 8 0
-140 53 0
-140 -30 0
-140 -37 0
-140 -67 0
-140 -76 0
-140 63 0
140 45 -71 -38 -8 -53 30 37 67 76 -63 0
131 132 133 134 135 136 137 138 139 140 0
-141 67 0
-141 51 0
-141 27 0
-141 39 0
-141 -22 0
-141 -83 0
-141 -9 0
-141 -1 0
-141 -78 0
-141 15 0
141 -67 -51 -27 -39 22 83 9 1 78 -15 0
-142 57 0
-142 -75 0
-142 -88 0
-142 73 0
-142 -35 0
-142 65 0
-142 18 0
-142 -94 0
-142 99 0
-142 98 0
142 -57 75 88 -73 35 -65 -18 94 -99 -98 0
-143 -20 0
-143 -32 0
-143 54 0
-143 26 0
-143 -91 0
-143 15 0
-143 -98 0
-143 8 0
-143 6 0
-143 84 0
143 20 32 -54 -26 91 -15 98 -8 -6 -84 0
-144 -12 0
-144 58 0
-144 22 0
-144 64 0
-144 65 0
-144 -34 0
-144 51 0
-144 -96 0
-144 -100 0
-144 52 0
144 12 -58 -22 -64 -65 34 -51 96 100 -52 0
-145 34 0
-145 44 0
-145 -51 0
-145 4 0
-145 -6 0
-145 -93 0
-145 19 0
-145 43 0
-145 -37 0
-145 80 0
145 -34 -44 51 -4 6 93 -19 -43 37 -80 0
-146 -6 0
-146 -58 0
-146 54 0
-146 82 0
-146 32 0
-146 88 0
-146 -51 0
-146 61 0
-146 -72 0
-146 63 0
146 6 58 -54 -82 -32 -88 51 -61 72 -63 0
-147 2 0
-147 87 0
-147 -90 0
-147 -11 0
-147 -37 0
-147 35 0
-147 -29 0
-147 -67 0
-147 -79 0
-147 92 0
147 -2 -87 90 11 37 -35 29 67 79 -92 0
-148 -4 0
-148 97 0
-148 -69 0
-148 57 0
-148 -86 0
-148 8 0
-148 -100 0
-148 -98 0
-148 -28 0
-148 59 0
148 4 -97 69 -57 86 -8 100 98 28 -59 0
-149 -32 0
-149 35 0
-149 71 0
-149 -53 0
-149 48 0
-149 94 0
-149 3 0
-149 -81 0
-149 34 0
-149 59 0
149 32 -35 -71 53 -48 -94 -3 81 -34 -59 0
-150 -93 0
-150 -87 0
-150 -85 0
-150 -58 0
-150 -98 0
-150 82 0
-150 -43 0
-150 54 0
-150 -59 0
-150 -4 0
150 93 87 85 58 98 -82 43 -54 59 4 0
141 142 143 144 145 146 147 148 149 150 0
-151 -67 0
-151 -43 0
-151 83 0
-151 -2 0
-151 -72 0
-151 95 0
-151 85 0
-151 -62 0
-151 -71 0
-151 -65 0
151 67 43 -83 2 72 -95 -85 62 71 65 0
-152 29 0
-152 20 0
-152 -14 0
-152 40 0
-152 36 0
-152 -7 0
-152 91 0
-152 -38 0
-152 -72 0
-152 3 0
152 -29 -20 14 -40 -36 7 -91 38 72 -3 0
-153 36 0
-153 -98 0
-153 -5 0
-153 -16 0
-153 49 0
-153 -12 0
-153 86 0
-153 -71 0
-153 50 0
-153 14 0
153 -36 98 5 16 -49 12 -86 71 -50 -14 0
-154 -79 0
-154 -9 0
-154 27 0
-154 42 0
-154 -38 0
-154 68 0
-154 5 0
-154 56 0
-154 -64 0
-154 -19 0
154 79 9 -27 -42 38 -68 -5 -56 64 19 0
-155 23 0
-155 -14 0
-155 -7 0
-155 -83 0
-155 -71 0
-155 -88 0
-155 74 0
-155 -46 0
-155 41 0
-155 -51 0
155 -23 14 7 83 71 88 -74 46 -41 51 0
-156 -6 0
-156 -25 0
-156 61 0
-156 36 0
-156 89 0
-156 91 0
-156 -46 0
-156 -12 0
-156 94 0
-156 85 0
156 6 25 -61 -36 -89 -91 46 12 -94 -85 0
-157 55 0
-157 -26 0
-157 62 0
-157 -97 0
-157 -70 0
-157 66 0
-157 -27 0
-157 -21 0
-157 -69 0
-157 -73 0
157 -55 26 -62 97 70 -66 27 21 69 73 0
-158 -100 0
-158 -95 0
-158 3 0
-158 84 0
-158 -2 0
-158 56 0
-158 49 0
-158 36 0
-158 58 0
-158 59 0
158 100 95 -3 -84 2 -56 -49 -36 -58 -59 0
-159 -30 0
-159 -77 0
-159 -97 0
-159 -37 0
-159 -45 0
-159 33 0
-159 -10 0
-159 32 0
-159 68 0
-159 96 0
159 30 77 97 37 45 -33 10 -32 -68 -96 0
-160 -48 0
-160 -21 0
-160 60 0
-160 -7 0
-160 -70 0
-160 -80 0
-160 -17 0
-160 -30 0
-160 -53 0
-160 -100 0
160 48 21 -60 7 70 80 17 30 53 100 0
151 152 153 154 155 156 157 158 159 160 0
-161 -60 0
-161 99 0
-161 -74 0
-161 -82 0
-161 26 0
-161 29 0
-161 43 0
-161 100 0
-161 -45 0
-161 22 0
161 60 -99 74 82 -26 -29 -43 -100 45 -22 0
-162 86 0
-162 -21 0
-162 37 0
-162 -42 0
-162 24 0
-162 20 0
-162 -94 0
-162 -87 0
-162 -2 0
-162 8 0
162 -86 21 -37 42 -24 -20 94 87 2 -8 0
-163 -81 0
-163 65 0
-163 -20 0
-163 -88 0
-163 -51 0
-163 61 0
-163 94 0
-163 -68 0
-163 83 0
-163 4 0
163 81 -65 20 88 51 -61 -94 68 -83 -4 0
-164 -47 0
-164 83 0
-164 -62 0
-164 79 0
-164 34 0
-164 -42 0
-164 84 0
-164 33 0
-164 19 0
-164 87 0
164 47 -83 62 -79 -34 42 -84 -33 -19 -87 0
-165 -78 0
-165 6 0
-165 -32 0
-165 36 0
-165 46 0
-165 57 0
-165 42 0
-165 -59 0
-165 -92 0
-165 14 0
165 78 -6 32 -36 -46 -57 -42 59 92 -14 0
-166 -75 0
-166 -70 0
-166 -81 0
-166 32 0
-166 67 0
-166 38 0
-166 -76 0
-166 86 0
-166 -53 0
-166 -65 0
166 75 70 81 -32 -67 -38 76 -86 53 65 0
-167 -7 0
-167 85 0
-167 29 0
-167 37 0
-167 44 0
-167 34 0
-167 -36 0
-167 9 0
-167 -6 0
-167 -67 0
167 7 -85 -29 -37 -44 -34 36 -9 6 67 0
-168 29 0
-168 -8 0
-168 -82 0
-168 51 0
-168 52 0
-168 67 0
-168 44 0
-168 60 0
-168 -66 0
-168 -37 0
168 -29 8 82 -51 -52 -67 -44 -60 66 37 0
-169 17 0
-169 91 0
-169 34 0
-169 90 0
-169 69 0
-169 47 0
-169 -52 0
-169 -50 0
-169 92 0
-169 27 0
169 -17 -91 -34 -90 -69 -47 52 50 -92 -27 0
-170 57 0
-170 29 0
-170 78 0
-170 54 0
-170 76 0
-170 7 0
-170 85 0
-170 -79 0
-170 -44 0
-170 46 0
170 -57 -29 -78 -54 -76 -7 -85 79 44 -46 0
161 162 163 164 165 166 167 168 169 170 0
-171 87 0
-171 -32 0
-171 98 0
-171 -43 0
-171 78 0
-171 -8 0
-171 -44 0
-171 94 0
-171 42 0
-171 -25 0
171 -87 32 -98 43 -78 8 44 -94 -42 25 0
-172 -85 0
-172 -59 0
-172 90 0
-172 13 0
-172 95 0
-172 -78 0
-172 -87 0
-172 75 0
-172 47 0
-172 -79 0
172 85 59 -90 -13 -95 78 87 -75 -47 79 0
-173 -89 0
-173 22 0
-173 -35 0
-173 -30 0
-173 -20 0
-173 5 0
-173 36 0
-173 58 0
-173 49 0
-173 18 0
173 89 -22 35 30 20 -5 -36 -58 -49 -18 0
-174 -86 0
-174 67 0
-174 -8 0
-174 65 0
-174 96 0
-174 33 0
-174 49 0
-174 15 0
-174 83 0
-174 -84 0
174 86 -67 8 -65 -96 -33 -49 -15 -83 84 0
-175 21 0
-175 -90 0
-175 16 0
-175 -4 0
-175 100 0
-175 -5 0
-175 68 0
-175 -60 0
-175 98 0
-175 -10 0
175 -21 90 -16 4 -100 5 -68 60 -98 10 0
-176 37 0
-176 -93 0
-176 -39 0
-176 -65 0
-176 -96 0
-176 -49 0
-176 53 0
-176 12 0
-176 -45 0
-176 -58 0
176 -37 93 39 65 96 49 -53 -12 45 58 0
-177 90 0
-177 6 0
-177 68 0
-177 -18 0
-177 76 0
-177 -74 0
-177 -100 0
-177 46 0
-177 3 0
-177 11 0
177 -90 -6 -68 18 -76 74 100 -46 -3 -11 0
-178 88 0
-178 13 0
-178 -19 0
-178 -31 0
-178 -52 0
-178 -59 0
-178 9 0
-178 -34 0
-178 15 0
-178 64 0
178 -88 -13 19 31 52 59 -9 34 -15 -64 0
-179 -28 0
-179 13 0
-179 84 0
-179 40 0
-179 -37 0
-179 41 0
-179 -89 0
-179 -35 0
-179 -21 0
-179 -79 0
179 28 -13 -84 -40 37 -41 89 35 21 79 0
-180 65 0
-180 -56 0
-180 7 0
-180 -92 0
-180 -19 0
-180 -39 0
-180 -97 0
-180 35 0
-180 98 0
-180 -9 0
180 -65 56 -7 92 19 39 97 -35 -98 9 0
171 172 173 174 175 176 177 178 179 180 0
-181 -84 0
-181 -18 0
-181 -54 0
-181 67 0
-181 68 0
-181 -17 0
-181 -24 0
-181 63 0
-181 -6 0
-181 99 0
181 84 18 54 -67 -68 17 24 -63 6 -99 0
-182 65 0
-182 -98 0
-182 -26 0
-182 62 0
-182 -72 0
-182 11 0
-182 -64 0
-182 -58 0
-182 -48 0
-182 71 0
182 -65 98 26 -62 72 -11 64 58 48 -71 0
-183 -96 0
-183 55 0
-183 -10 0
-183 -6 0
-183 -30 0
-183 79 0
-183 31 0
-183 82 0
-183 -32 0
-183 58 0
183 96 -55 10 6 30 -79 -31 -82 32 -58 0
-184 8 0
-184 -25 0
-184 -13 0
-184 -81 0
-184 15 0
-184 -54 0
-184 22 0
-184 86 0
-184 61 0
-184 -64 0
184 -8 25 13 81 -15 54 -22 -86 -61 64 0
-185 82 0
-185 16 0
-185 -44 0
-185 -12 0
-185 11 0
-185 49 0
-185 8 0
-185 77 0
-185 89 0
-185 69 0
185 -82 -16 44 12 -11 -49 -8 -77 -89 -69 0
-186 99 0
-186 95 0
-186 22 0
-186 -14 0
-186 70 0
-186 46 0
-186 -78 0
-186 36 0
-186 83 0
-186 -18 0
186 -99 -95 -22 14 -70 -46 78 -36 -83 18 0
-187 23 0
-187 15 0
-187 -67 0
-187 -26 0
-187 58 0
-187 69 0
-187 -63 0
-187 43 0
-187 18 0
-187 -83 0
187 -23 -15 67 26 -58 -69 63 -43 -18 83 0
-188 12 0
-188 -60 0
-188 -34 0
-188 97 0
-188 77 0
-188 80 0
-188 92 0
-188 -68 0
-188 65 0
-188 5 0
188 -12 60 34 -97 -77 -80 -92 68 -65 -5 0
-189 -9 0
-189 62 0
-189 35 0
-189 89 0
-189 -69 0
-189 61 0
-189 -48 0
-189 73 0
-189 -13 0
-189 53 0
189 9 -62 -35 -89 69 -61 48 -73 13 -53 0
-190 -1 0
-190 91 0
-190 65 0
-190 81 0
-190 19 0
-190 -54 0
-190 -6 0
-190 -82 0
-190 8 0
-190 -34 0
190 1 -91 -65 -81 -19 54 6 82 -8 34 0
181 182 183 184 185 186 187 188 189 190 0
-191 -41 0
-191 5 0
-191 -13 0
-191 86 0
-191 -34 0
-191 6 0
-191 7 0
-191 56 0
-191 66 0
-191 -57 0
191 41 -5 13 -86 34 -6 -7 -56 -66 57 0
-192 -56 0
-192 79 0
-192 -38 0
-192 -62 0
-192 -20 0
-192 11 0
-192 34 0
-192 -30 0
-192 -65 0
-192 60 0
192 56 -79 38 62 20 -11 -34 30 65 -60 0
-193 19 0
-193 43 0
-193 -91 0
-193 6 0
-193 -96 0
-193 -64 0
-193 54 0
-193 48 0
-193 -92 0
-193 -51 0
193 -19 -43 91 -6 96 64 -54 -48 92 51 0
-194 24 0
-194 -71 0
-194 -4 0
-194 -8 0
-194 73 0
-194 -41 0
-194 35 0
-194 9 0
-194 -61 0
-194 -32 0
194 -24 71 4 8 -73 41 -35 -9 61 32 0
-195 75 0
-195 -50 0
-195 74 0
-195 42 0
-195 -43 0
-195 -27 0
-195 -44 0
-195 36 0
-195 -12 0
-195 -26 0
195 -75 50 -74 -42 43 27 44 -36 12 26 0
-196 78 0
-196 -33 0
-196 86 0
-196 -32 0
-196 -84 0
-196 93 0
-196 -6 0
-196 13 0
-196 -28 0
-196 20 0
196 -78 33 -86 32 84 -93 6 -13 28 -20 0
-197 39 0
-197 58 0
-197 75 0
-197 -99 0
-197 78 0
-197 68 0
-197 3 0
-197 7 0
-197 -91 0
-197 72 0
197 -39 -58 -75 99 -78 -68 -3 -7 91 -72 0
-198 56 0
-198 -26 0
-198 -32 0
-198 -19 0
-198 45 0
-198 -35 0
-198 11 0
-198 -4 0
-198 78 0
-198 83 0
198 -56 26 32 19 -45 35 -11 4 -78 -83 0
-199 30 0
-199 43 0
-199 -25 0
-199 16 0
-199 20 0
-199 69 0
-199 -94 0
-199 31 0
-199 -38 0
-199 -71 0
199 -30 -43 25 -16 -20 -69 94 -31 38 71 0
-200 24 0
-200 -23 0
-200 13 0
-200 46 0
-200 -88 0
-200 33 0
-200 64 0
-200 -29 0
-200 31 0
-200 -4 0
200 -24 23 -13 -46 88 -33 -64 29 -31 4 0
191 192 193 194 195 196 197 198 199 200 0
